This is Ipopt version 3.12.3, running with linear solver mumps.
NOTE: Other linear solvers might be more efficient (see Ipopt documentation).

Number of nonzeros in equality constraint Jacobian...:        2
Number of nonzeros in inequality constraint Jacobian.:        0
Number of nonzeros in Lagrangian Hessian.............:        3

Total number of variables............................:        2
                     variables with only lower bounds:        2
                variables with lower and upper bounds:        0
                     variables with only upper bounds:        0
Total number of equality constraints.................:        1
Total number of inequality constraints...............:        0
        inequality constraints with only lower bounds:        0
   inequality constraints with lower and upper bounds:        0
        inequality constraints with only upper bounds:        0

iter    objective    inf_pr   inf_du lg(mu)  ||d||  lg(rg) alpha_du alpha_pr  ls
   0  2.0399979e-02 9.80e-01 1.00e-02   0.0 0.00e+00    -  0.00e+00 0.00e+00   0
   1  1.9951461e+00 0.00e+00 4.95e+01  -8.0 4.95e-01    -  1.96e-02 1.00e+00h  1
   2  1.8750453e+00 0.00e+00 2.49e-08  -2.6 2.40e-01    -  1.00e+00 1.00e+00f  1
   3  1.8750000e+00 0.00e+00 2.02e-10  -4.7 4.66e-03    -  1.00e+00 1.00e+00f  1
   4  1.8750000e+00 0.00e+00 1.03e-07 -10.2 1.01e-04    -  1.00e+00 1.00e+00f  1
   5  1.8750000e+00 0.00e+00 1.67e-16 -11.0 4.44e-08    -  1.00e+00 1.00e+00f  1

Number of Iterations....: 5

                                   (scaled)                 (unscaled)
Objective...............:   1.8750000000000000e+00    1.8750000000000000e+00
Dual infeasibility......:   1.6672864929318191e-16    1.6672864929318191e-16
Constraint violation....:   0.0000000000000000e+00    0.0000000000000000e+00
Complementarity.........:   1.0012312944815384e-11    1.0012312944815384e-11
Overall NLP error.......:   1.0012312944815384e-11    1.0012312944815384e-11


Number of objective function evaluations             = 6
Number of objective gradient evaluations             = 6
Number of equality constraint evaluations            = 6
Number of inequality constraint evaluations          = 0
Number of equality constraint Jacobian evaluations   = 1
Number of inequality constraint Jacobian evaluations = 0
Number of Lagrangian Hessian evaluations             = 1
Total CPU secs in IPOPT (w/o function evaluations)   =      0.011
Total CPU secs in NLP function evaluations           =      0.000

EXIT: Optimal Solution Found.
